db/data/179141148222497304131978830558948118017.z3.out
-------------------
2500.043345448
